(set-info :source  loris-7.ddns.comp.nus.edu.sg/~project/hip/) 
;Variables declarations
(declare-fun next_61_1571_primed () Int)
(declare-fun prev_61_1570_primed () Int)
(declare-fun val_61_1569_primed () Int)
(declare-fun Anon_2554 () Int)
(declare-fun q_2527 () Int)
(declare-fun x () Int)
(declare-fun a () Int)
(declare-fun a_primed () Int)
(declare-fun v_bool_59_1592_primed () Int)
(declare-fun p_2523 () Int)
(declare-fun p () Int)
(declare-fun n () Int)
(declare-fun self_2552 () Int)
(declare-fun v_node2_61_1568_primed () Int)
(declare-fun p_2551 () Int)
(declare-fun self_2524 () Int)
(declare-fun flted_12_2525 () Int)
(declare-fun x_primed () Int)
(declare-fun flted_12_2553 () Int)
(declare-fun q_2555 () Int)
;Relations declarations
;Axioms assertions
;Antecedent
(assert (= next_61_1571_primed q_2555))
(assert (= prev_61_1570_primed p_2551))
(assert (= val_61_1569_primed Anon_2554))
(assert (= v_node2_61_1568_primed q_2527))
(assert (= x_primed x))
(assert (= a_primed a))
(assert (< a n))
(assert (< 0 a))
(assert (= a_primed 1))
(assert (> v_bool_59_1592_primed 0))
(assert (= self_2524 x_primed))
(assert (= p_2523 p))
(assert (= (+ flted_12_2525 1) n))
(assert (= self_2552 v_node2_61_1568_primed))
(assert (= p_2551 self_2524))
(assert (= (+ flted_12_2553 1) flted_12_2525))
(assert (= x_primed 1))
(assert (or (and (< q_2555 1) (= flted_12_2553 0)) (and (<= 1 flted_12_2553) (> q_2555 0))))
;Negation of Consequence
(assert (not false))
(check-sat)